#Contact model example

units		si

atom_style	granular
atom_modify	map array  
boundary	m m m      
newton		off       

# Read data
read_data	Ordored_Liggghts_long.sys

# Some grouping (useful for fixing)
group 		A type 1

communicate	single vel yes  

neighbor	0.001 bin                                 
neigh_modify	delay 0       

#Material properties required for new pair styles

fix 		m1 all property/global youngsModulus peratomtype 1.e7
fix 		m2 all property/global poissonsRatio peratomtype 0.3
fix 		m3 all property/global coefficientRestitution peratomtypepair 1 0.9
fix 		m4 all property/global coefficientFriction peratomtypepair 1 0.05
fix 		m5 all property/global characteristicVelocity scalar 2.
fix 		m6 all property/global cohesionEnergyDensity peratomtypepair 1 200

#New pair style
pair_style 	gran/hertz/history 1 1  #Hertzian with cohesion
pair_coeff	* *

timestep	0.02

fix		gravi all gravity 0 vector 0.0 0.0 -1.0

#fix		zwalls all wall/gran/hertz/history 1 0 zplane -1.0 2.5 1 

#granular walls
fix		topwall all mesh/gran topwall.stl   1 1. 0. 0. 0. 0. 0. 0.  
fix		bottomwall all mesh/gran bottomwall.stl   1 1. 0. 0. 0. 0. 0. 0.
fix		wall all wall/gran/hertz/history 1 0 mesh/gran 2 topwall bottomwall

fix F_movetop   all move/mesh/gran linear 0. 0. -0.0001 units box topwall 1

#apply nve integration to all particles that are inserted as single particles
fix		integr A nve/sphere    


dump D_stl all stl 1000 post/Wall-*.stl

dump I_stl all mesh/gran/VTK 1000 post/Stress_file-*.vtk stress


#output settings, include total thermal energy
compute		1 all erotate/sphere
thermo_style	custom step atoms ke c_1 vol
thermo		1000
thermo_modify	lost ignore norm no
compute_modify	thermo_temp dynamic yes

#insert the first particles so that dump is not empty
run		1
dump		dmp all custom 1000 post/dump.compression id type type x y z ix iy iz vx vy vz fx fy fz omegax omegay omegaz radius


#run
run		20000 upto
